750
1000 1000
1 798 976
2 798 876
3 797 186
4 795 118
5 795 47
6 794 568
7 794 490
8 793 609
9 792 995
10 791 935
11 790 75
12 790 489
13 790 568
14 788 542
15 788 661
16 786 44
17 784 339
18 784 113
19 783 902
20 782 97
21 781 356
22 781 982
23 780 686
24 780 587
25 780 962
26 780 939
27 779 708
28 778 225
29 778 264
30 777 864
31 776 63
32 775 795
33 774 221
34 774 170
35 774 43
36 772 872
37 772 4
38 771 579
39 770 801
40 768 340
41 764 744
42 763 963
43 763 462
44 761 435
45 760 297
46 759 854
47 758 136
48 758 671
49 757 519
50 757 27
51 756 92
52 755 732
53 755 467
54 755 303
55 752 845
56 752 45
57 751 706
58 749 477
59 747 886
60 747 135
61 744 28
62 744 647
63 743 637
64 742 147
65 739 550
66 738 898
67 735 668
68 734 235
69 732 327
70 732 887
71 729 116
72 728 385
73 727 802
74 724 143
75 724 967
76 723 737
77 722 583
78 722 644
79 721 799
80 719 215
81 717 272
82 717 274
83 716 22
84 715 506
85 712 41
86 712 168
87 711 180
88 709 62
89 709 786
90 708 330
91 707 265
92 707 530
93 705 66
94 703 309
95 702 465
96 702 508
97 701 311
98 701 346
99 701 667
100 700 974
101 699 364
102 698 83
103 697 48
104 697 104
105 696 676
106 695 326
107 695 538
108 695 883
109 695 766
110 694 876
111 692 417
112 688 208
113 687 825
114 686 938
115 686 62
116 686 769
117 685 703
118 685 470
119 685 784
120 684 489
121 684 30
122 684 787
123 684 927
124 683 150
125 682 780
126 681 186
127 680 582
128 680 412
129 679 878
130 677 433
131 676 766
132 676 669
133 674 910
134 673 364
135 672 435
136 672 170
137 670 31
138 669 461
139 669 991
140 669 130
141 669 424
142 667 576
143 667 172
144 666 316
145 665 675
146 665 110
147 664 361
148 662 255
149 662 477
150 661 463
151 660 787
152 660 558
153 659 934
154 657 647
155 656 759
156 656 814
157 656 284
158 655 880
159 655 377
160 655 875
161 654 776
162 654 950
163 654 915
164 653 316
165 652 677
166 651 160
167 651 158
168 650 566
169 650 872
170 650 911
171 648 878
172 647 388
173 647 344
174 646 216
175 646 882
176 645 569
177 644 209
178 644 751
179 644 508
180 643 488
181 642 262
182 642 192
183 641 816
184 638 215
185 638 472
186 638 553
187 637 412
188 636 172
189 636 153
190 636 623
191 636 664
192 635 245
193 635 515
194 633 769
195 632 643
196 631 154
197 631 667
198 630 44
199 629 628
200 629 978
201 628 356
202 628 553
203 628 211
204 627 402
205 626 343
206 626 368
207 626 417
208 626 949
209 626 251
210 623 396
211 623 267
212 623 90
213 623 29
214 622 286
215 622 508
216 621 129
217 620 521
218 618 202
219 618 946
220 617 133
221 616 853
222 616 220
223 615 398
224 615 36
225 615 219
226 614 312
227 613 560
228 612 539
229 611 482
230 610 695
231 609 825
232 606 871
233 605 146
234 605 69
235 605 603
236 602 849
237 602 793
238 601 962
239 601 400
240 600 4
241 599 894
242 598 321
243 597 972
244 597 155
245 596 374
246 595 814
247 594 44
248 594 803
249 594 471
250 592 161
251 589 766
252 589 269
253 588 630
254 587 509
255 587 229
256 587 748
257 585 12
258 585 46
259 585 36
260 579 720
261 578 93
262 577 133
263 577 194
264 575 367
265 575 107
266 574 51
267 574 745
268 574 543
269 572 55
270 571 379
271 571 78
272 571 236
273 571 24
274 570 316
275 569 204
276 568 915
277 568 968
278 568 259
279 567 148
280 567 125
281 566 653
282 566 445
283 566 660
284 565 418
285 564 176
286 564 168
287 563 427
288 563 780
289 561 962
290 556 391
291 556 359
292 555 957
293 554 567
294 553 705
295 552 392
296 552 550
297 551 447
298 551 480
299 550 953
300 550 244
301 550 282
302 550 576
303 550 641
304 549 406
305 549 749
306 548 76
307 546 450
308 546 72
309 546 55
310 545 72
311 545 257
312 544 733
313 544 561
314 543 932
315 541 669
316 540 274
317 540 546
318 540 169
319 539 466
320 537 518
321 536 197
322 536 269
323 536 593
324 535 404
325 535 454
326 534 717
327 534 62
328 532 462
329 531 465
330 531 256
331 530 570
332 530 626
333 528 295
334 528 391
335 527 668
336 527 441
337 525 666
338 523 811
339 523 690
340 521 295
341 519 238
342 519 228
343 518 651
344 518 946
345 515 637
346 514 609
347 513 346
348 513 835
349 513 700
350 511 317
351 510 40
352 510 88
353 509 556
354 508 61
355 507 927
356 507 497
357 507 442
358 506 902
359 506 23
360 506 330
361 506 974
362 505 195
363 501 703
364 500 35
365 499 703
366 499 479
367 496 710
368 495 341
369 494 701
370 493 34
371 490 768
372 489 7
373 489 7
374 488 277
375 488 194
376 487 198
377 487 617
378 486 480
379 486 776
380 486 949
381 486 805
382 485 743
383 480 643
384 480 761
385 478 767
386 476 10
387 476 536
388 475 57
389 474 704
390 474 77
391 473 46
392 472 254
393 472 103
394 469 554
395 468 796
396 467 776
397 465 744
398 464 662
399 463 70
400 463 443
401 462 499
402 462 727
403 462 629
404 461 381
405 460 272
406 457 804
407 456 755
408 456 943
409 456 117
410 453 865
411 453 351
412 453 437
413 452 119
414 452 811
415 451 776
416 449 381
417 449 780
418 446 673
419 446 539
420 446 600
421 446 16
422 445 439
423 445 869
424 441 931
425 440 552
426 440 296
427 437 633
428 437 69
429 436 888
430 436 732
431 434 760
432 434 567
433 432 661
434 432 621
435 432 246
436 431 903
437 431 1
438 431 969
439 430 642
440 429 328
441 428 282
442 427 349
443 425 941
444 424 841
445 424 732
446 424 285
447 421 795
448 421 983
449 420 587
450 420 671
451 420 733
452 419 65
453 418 196
454 418 78
455 418 331
456 416 597
457 416 854
458 415 429
459 415 374
460 413 208
461 413 808
462 412 342
463 410 155
464 410 434
465 410 778
466 408 768
467 407 325
468 406 335
469 405 890
470 405 291
471 404 611
472 404 36
473 403 409
474 403 936
475 402 410
476 402 545
477 401 0
478 401 771
479 401 280
480 400 537
481 400 985
482 399 816
483 399 359
484 398 295
485 397 713
486 397 286
487 396 712
488 394 823
489 391 927
490 391 583
491 390 928
492 390 668
493 389 261
494 389 208
495 389 316
496 388 477
497 387 599
498 386 175
499 384 51
500 382 300
501 382 89
502 382 805
503 379 322
504 378 214
505 377 607
506 375 51
507 375 888
508 375 254
509 374 820
510 374 312
511 373 531
512 372 890
513 372 126
514 372 863
515 369 278
516 368 311
517 368 758
518 368 842
519 367 627
520 367 775
521 367 421
522 367 482
523 367 836
524 367 919
525 367 316
526 366 319
527 366 728
528 366 544
529 366 85
530 365 130
531 363 17
532 362 526
533 361 325
534 360 329
535 360 890
536 359 332
537 357 108
538 356 987
539 356 457
540 354 811
541 354 281
542 354 655
543 353 684
544 353 744
545 352 804
546 350 905
547 349 561
548 348 511
549 348 378
550 348 424
551 344 993
552 343 393
553 342 220
554 342 629
555 340 7
556 337 860
557 337 14
558 336 272
559 335 232
560 335 599
561 334 925
562 332 113
563 330 123
564 329 644
565 329 383
566 326 628
567 326 807
568 325 355
569 324 485
570 323 499
571 322 67
572 320 301
573 320 79
574 320 674
575 319 927
576 319 905
577 319 760
578 318 335
579 318 817
580 317 122
581 316 495
582 316 168
583 315 8
584 314 646
585 313 128
586 313 886
587 313 266
588 312 298
589 312 372
590 311 765
591 310 546
592 309 419
593 308 7
594 308 747
595 307 383
596 307 387
597 305 280
598 305 151
599 304 251
600 302 104
601 300 776
602 299 919
603 299 640
604 297 644
605 296 758
606 295 538
607 295 502
608 294 277
609 293 819
610 293 708
611 293 649
612 292 167
613 292 198
614 292 791
615 290 397
616 289 320
617 289 744
618 288 63
619 288 216
620 285 996
621 284 897
622 283 847
623 283 485
624 282 811
625 281 895
626 281 742
627 281 862
628 281 780
629 280 35
630 279 220
631 279 643
632 278 556
633 278 974
634 276 127
635 275 0
636 275 980
637 275 762
638 275 663
639 274 429
640 273 762
641 272 483
642 268 891
643 268 239
644 266 898
645 265 598
646 265 474
647 265 761
648 265 285
649 264 267
650 264 995
651 264 291
652 263 331
653 263 384
654 262 171
655 262 284
656 260 47
657 260 928
658 259 522
659 259 348
660 258 821
661 257 462
662 256 381
663 255 754
664 254 193
665 254 798
666 253 934
667 253 205
668 252 83
669 250 81
670 250 262
671 250 608
672 250 413
673 249 264
674 249 97
675 249 814
676 248 153
677 248 523
678 247 739
679 247 776
680 246 554
681 246 292
682 245 339
683 245 347
684 245 963
685 244 970
686 243 441
687 243 483
688 242 245
689 242 309
690 242 570
691 241 12
692 240 572
693 240 908
694 240 880
695 239 534
696 238 63
697 238 446
698 237 427
699 236 135
700 235 72
701 235 323
702 234 709
703 234 184
704 234 917
705 233 547
706 232 549
707 230 36
708 229 47
709 229 195
710 229 607
711 226 328
712 226 691
713 223 480
714 223 668
715 223 482
716 223 546
717 223 856
718 223 674
719 222 764
720 222 425
721 221 293
722 221 191
723 220 950
724 219 71
725 219 692
726 219 572
727 218 867
728 218 290
729 218 843
730 216 357
731 216 112
732 215 589
733 213 319
734 211 538
735 210 538
736 209 595
737 208 347
738 208 52
739 208 544
740 207 189
741 207 269
742 204 515
743 204 630
744 203 299
745 203 745
746 202 458
747 201 845
748 201 660
749 200 727
750 200 437
